c Modular CNF with 3 modules
c Generated CNF instance
p cnf 30 480
6 1 4 0
6 1 -4 0
6 -1 4 0
-6 1 4 0
8 1 4 0
8 1 -4 0
8 -1 4 0
-8 1 4 0
10 6 1 0
10 6 -1 0
10 -6 1 0
-10 6 1 0
4 9 5 0
4 9 -5 0
4 -9 5 0
-4 9 5 0
3 2 7 0
3 2 -7 0
3 -2 7 0
-3 2 7 0
1 5 10 0
1 5 -10 0
1 -5 10 0
-1 5 10 0
5 1 10 0
5 1 -10 0
5 -1 10 0
-5 1 10 0
1 10 5 0
1 10 -5 0
1 -10 5 0
-1 10 5 0
5 2 9 0
5 2 -9 0
5 -2 9 0
-5 2 9 0
10 7 1 0
10 7 -1 0
10 -7 1 0
-10 7 1 0
8 7 10 0
8 7 -10 0
8 -7 10 0
-8 7 10 0
6 10 7 0
6 10 -7 0
6 -10 7 0
-6 10 7 0
2 9 7 0
2 9 -7 0
2 -9 7 0
-2 9 7 0
10 3 8 0
10 3 -8 0
10 -3 8 0
-10 3 8 0
5 9 7 0
5 9 -7 0
5 -9 7 0
-5 9 7 0
2 4 10 0
2 4 -10 0
2 -4 10 0
-2 4 10 0
9 7 4 0
9 7 -4 0
9 -7 4 0
-9 7 4 0
3 10 6 0
3 10 -6 0
3 -10 6 0
-3 10 6 0
2 1 10 0
2 1 -10 0
2 -1 10 0
-2 1 10 0
9 1 8 0
9 1 -8 0
9 -1 8 0
-9 1 8 0
6 10 3 0
6 10 -3 0
6 -10 3 0
-6 10 3 0
4 1 7 0
4 1 -7 0
4 -1 7 0
-4 1 7 0
2 1 8 0
2 1 -8 0
2 -1 8 0
-2 1 8 0
8 10 2 0
8 10 -2 0
8 -10 2 0
-8 10 2 0
6 7 1 0
6 7 -1 0
6 -7 1 0
-6 7 1 0
4 6 7 0
4 6 -7 0
4 -6 7 0
-4 6 7 0
8 3 1 0
8 3 -1 0
8 -3 1 0
-8 3 1 0
7 8 4 0
7 8 -4 0
7 -8 4 0
-7 8 4 0
10 2 8 0
10 2 -8 0
10 -2 8 0
-10 2 8 0
2 6 8 0
2 6 -8 0
2 -6 8 0
-2 6 8 0
1 4 5 0
1 4 -5 0
1 -4 5 0
-1 4 5 0
9 8 3 0
9 8 -3 0
9 -8 3 0
-9 8 3 0
5 10 3 0
5 10 -3 0
5 -10 3 0
-5 10 3 0
2 9 10 0
2 9 -10 0
2 -9 10 0
-2 9 10 0
3 7 2 0
3 7 -2 0
3 -7 2 0
-3 7 2 0
5 1 9 0
5 1 -9 0
5 -1 9 0
-5 1 9 0
9 7 3 0
9 7 -3 0
9 -7 3 0
-9 7 3 0
3 9 6 0
3 9 -6 0
3 -9 6 0
-3 9 6 0
5 2 3 0
5 2 -3 0
5 -2 3 0
-5 2 3 0
8 6 1 0
8 6 -1 0
8 -6 1 0
-8 6 1 0
19 11 13 0
19 11 -13 0
19 -11 13 0
-19 11 13 0
17 11 16 0
17 11 -16 0
17 -11 16 0
-17 11 16 0
15 17 16 0
15 17 -16 0
15 -17 16 0
-15 17 16 0
17 14 19 0
17 14 -19 0
17 -14 19 0
-17 14 19 0
11 18 20 0
11 18 -20 0
11 -18 20 0
-11 18 20 0
15 13 11 0
15 13 -11 0
15 -13 11 0
-15 13 11 0
18 20 17 0
18 20 -17 0
18 -20 17 0
-18 20 17 0
13 15 14 0
13 15 -14 0
13 -15 14 0
-13 15 14 0
18 16 11 0
18 16 -11 0
18 -16 11 0
-18 16 11 0
18 12 19 0
18 12 -19 0
18 -12 19 0
-18 12 19 0
14 15 20 0
14 15 -20 0
14 -15 20 0
-14 15 20 0
13 18 20 0
13 18 -20 0
13 -18 20 0
-13 18 20 0
11 17 16 0
11 17 -16 0
11 -17 16 0
-11 17 16 0
11 15 16 0
11 15 -16 0
11 -15 16 0
-11 15 16 0
15 14 12 0
15 14 -12 0
15 -14 12 0
-15 14 12 0
14 16 20 0
14 16 -20 0
14 -16 20 0
-14 16 20 0
15 18 19 0
15 18 -19 0
15 -18 19 0
-15 18 19 0
14 17 18 0
14 17 -18 0
14 -17 18 0
-14 17 18 0
19 20 12 0
19 20 -12 0
19 -20 12 0
-19 20 12 0
17 16 13 0
17 16 -13 0
17 -16 13 0
-17 16 13 0
19 18 20 0
19 18 -20 0
19 -18 20 0
-19 18 20 0
19 11 18 0
19 11 -18 0
19 -11 18 0
-19 11 18 0
12 17 11 0
12 17 -11 0
12 -17 11 0
-12 17 11 0
18 17 15 0
18 17 -15 0
18 -17 15 0
-18 17 15 0
13 15 17 0
13 15 -17 0
13 -15 17 0
-13 15 17 0
19 20 17 0
19 20 -17 0
19 -20 17 0
-19 20 17 0
18 16 17 0
18 16 -17 0
18 -16 17 0
-18 16 17 0
13 20 15 0
13 20 -15 0
13 -20 15 0
-13 20 15 0
15 14 12 0
15 14 -12 0
15 -14 12 0
-15 14 12 0
11 18 19 0
11 18 -19 0
11 -18 19 0
-11 18 19 0
13 14 15 0
13 14 -15 0
13 -14 15 0
-13 14 15 0
12 20 13 0
12 20 -13 0
12 -20 13 0
-12 20 13 0
16 12 13 0
16 12 -13 0
16 -12 13 0
-16 12 13 0
11 14 19 0
11 14 -19 0
11 -14 19 0
-11 14 19 0
17 20 11 0
17 20 -11 0
17 -20 11 0
-17 20 11 0
13 12 14 0
13 12 -14 0
13 -12 14 0
-13 12 14 0
20 14 17 0
20 14 -17 0
20 -14 17 0
-20 14 17 0
17 19 11 0
17 19 -11 0
17 -19 11 0
-17 19 11 0
19 17 16 0
19 17 -16 0
19 -17 16 0
-19 17 16 0
19 12 15 0
19 12 -15 0
19 -12 15 0
-19 12 15 0
24 28 25 0
24 28 -25 0
24 -28 25 0
-24 28 25 0
29 30 22 0
29 30 -22 0
29 -30 22 0
-29 30 22 0
24 22 21 0
24 22 -21 0
24 -22 21 0
-24 22 21 0
26 23 22 0
26 23 -22 0
26 -23 22 0
-26 23 22 0
22 23 28 0
22 23 -28 0
22 -23 28 0
-22 23 28 0
29 27 28 0
29 27 -28 0
29 -27 28 0
-29 27 28 0
27 30 29 0
27 30 -29 0
27 -30 29 0
-27 30 29 0
23 29 30 0
23 29 -30 0
23 -29 30 0
-23 29 30 0
25 29 21 0
25 29 -21 0
25 -29 21 0
-25 29 21 0
30 29 22 0
30 29 -22 0
30 -29 22 0
-30 29 22 0
30 23 29 0
30 23 -29 0
30 -23 29 0
-30 23 29 0
29 26 24 0
29 26 -24 0
29 -26 24 0
-29 26 24 0
23 22 26 0
23 22 -26 0
23 -22 26 0
-23 22 26 0
27 30 29 0
27 30 -29 0
27 -30 29 0
-27 30 29 0
23 24 25 0
23 24 -25 0
23 -24 25 0
-23 24 25 0
30 28 22 0
30 28 -22 0
30 -28 22 0
-30 28 22 0
21 27 23 0
21 27 -23 0
21 -27 23 0
-21 27 23 0
21 28 24 0
21 28 -24 0
21 -28 24 0
-21 28 24 0
30 29 21 0
30 29 -21 0
30 -29 21 0
-30 29 21 0
30 28 23 0
30 28 -23 0
30 -28 23 0
-30 28 23 0
30 26 25 0
30 26 -25 0
30 -26 25 0
-30 26 25 0
30 25 23 0
30 25 -23 0
30 -25 23 0
-30 25 23 0
24 26 25 0
24 26 -25 0
24 -26 25 0
-24 26 25 0
23 24 28 0
23 24 -28 0
23 -24 28 0
-23 24 28 0
24 29 21 0
24 29 -21 0
24 -29 21 0
-24 29 21 0
30 21 22 0
30 21 -22 0
30 -21 22 0
-30 21 22 0
30 24 26 0
30 24 -26 0
30 -24 26 0
-30 24 26 0
27 28 26 0
27 28 -26 0
27 -28 26 0
-27 28 26 0
23 28 22 0
23 28 -22 0
23 -28 22 0
-23 28 22 0
30 26 23 0
30 26 -23 0
30 -26 23 0
-30 26 23 0
27 24 21 0
27 24 -21 0
27 -24 21 0
-27 24 21 0
29 27 21 0
29 27 -21 0
29 -27 21 0
-29 27 21 0
30 22 29 0
30 22 -29 0
30 -22 29 0
-30 22 29 0
27 26 30 0
27 26 -30 0
27 -26 30 0
-27 26 30 0
28 27 26 0
28 27 -26 0
28 -27 26 0
-28 27 26 0
29 25 22 0
29 25 -22 0
29 -25 22 0
-29 25 22 0
23 28 26 0
23 28 -26 0
23 -28 26 0
-23 28 26 0
22 21 28 0
22 21 -28 0
22 -21 28 0
-22 21 28 0
30 27 24 0
30 27 -24 0
30 -27 24 0
-30 27 24 0
26 27 29 0
26 27 -29 0
26 -27 29 0
-26 27 29 0
